NAME : prob30c
TYPE : PDTSP
DIMENSION : 61
EDGE_WEIGHT_TYPE : EUC_2D
NODE_COORD_SECTION
1 478 553
2 905 773
3 833 247
4 775 563
5 138 419
6 503 791
7 771 933
8 326 978
9 518 554
10 692 263
11 936 110
12 504 463
13 634 763
14 222 522
15 151 562
16 631 509
17 892 633
18 357 887
19 862 579
20 929 995
21 351 652
22 104 182
23 879 14
24 953 795
25 602 915
26 111 461
27 400 10
28 254 1
29 206 525
30 173 734
31 67 613
32 327 220
33 420 794
34 11 101
35 26 607
36 730 264
37 910 758
38 214 59
39 27 922
40 167 567
41 477 398
42 25 682
43 389 838
44 230 821
45 384 154
46 947 1
47 261 67
48 436 664
49 750 990
50 982 195
51 972 497
52 199 721
53 601 316
54 700 139
55 455 19
56 345 947
57 596 512
58 210 440
59 617 378
60 860 5
61 166 707
PICKUP_AND_DELIVERY_SECTION
1 0 0 0 0 0 0
2 0 0 0 0 32 0
3 0 0 0 0 33 0
4 0 0 0 0 34 0
5 0 0 0 0 35 0
6 0 0 0 0 36 0
7 0 0 0 0 37 0
8 0 0 0 0 38 0
9 0 0 0 0 39 0
10 0 0 0 0 40 0
11 0 0 0 0 41 0
12 0 0 0 0 42 0
13 0 0 0 0 43 0
14 0 0 0 0 44 0
15 0 0 0 0 45 0
16 0 0 0 0 46 0
17 0 0 0 0 47 0
18 0 0 0 0 48 0
19 0 0 0 0 49 0
20 0 0 0 0 50 0
21 0 0 0 0 51 0
22 0 0 0 0 52 0
23 0 0 0 0 53 0
24 0 0 0 0 54 0
25 0 0 0 0 55 0
26 0 0 0 0 56 0
27 0 0 0 0 57 0
28 0 0 0 0 58 0
29 0 0 0 0 59 0
30 0 0 0 0 60 0
31 0 0 0 0 61 0
32 0 0 0 0 0 2
33 0 0 0 0 0 3
34 0 0 0 0 0 4
35 0 0 0 0 0 5
36 0 0 0 0 0 6
37 0 0 0 0 0 7
38 0 0 0 0 0 8
39 0 0 0 0 0 9
40 0 0 0 0 0 10
41 0 0 0 0 0 11
42 0 0 0 0 0 12
43 0 0 0 0 0 13
44 0 0 0 0 0 14
45 0 0 0 0 0 15
46 0 0 0 0 0 16
47 0 0 0 0 0 17
48 0 0 0 0 0 18
49 0 0 0 0 0 19
50 0 0 0 0 0 20
51 0 0 0 0 0 21
52 0 0 0 0 0 22
53 0 0 0 0 0 23
54 0 0 0 0 0 24
55 0 0 0 0 0 25
56 0 0 0 0 0 26
57 0 0 0 0 0 27
58 0 0 0 0 0 28
59 0 0 0 0 0 29
60 0 0 0 0 0 30
61 0 0 0 0 0 31
DEPOT_SECTION
1 
-1
EOF
